49
1000
699	1
693	1
688	1
677	1
672	1
671	1
669	1
651	1
621	1
607	1
578	1
573	1
553	1
547	1
537	1
520	1
513	1
499	1
484	1
482	1
480	1
475	1
448	1
435	1
433	1
423	1
420	1
403	1
398	1
390	1
379	1
378	1
371	1
370	1
369	1
367	1
358	1
337	1
317	1
309	1
298	1
290	1
288	1
247	1
244	1
236	2
230	1
222	1
151	1
